projected/problems_b25_r0_d7_m100_s666/_DIMACS/b25_d7_r0_s666_059.cnf
p cnf 283 483 25
c p show 1 2 3 4 5 6 7 8 9 10 11 12 13 14 15 16 17 18 19 20 21 22 23 24 25
-179 -17 -15 0
-180 22 0
-180 -12 0
-181 180 0
-181 179 0
-182 20 -22 0
-183 2 12 0
-184 183 0
-184 182 0
-185 -2 0
-185 -12 0
-186 -20 0
-186 22 0
-187 186 0
-187 185 0
-188 187 184 0
-189 188 181 0
-190 15 10 0
-191 4 0
-191 -6 0
-192 191 0
-192 190 0
-193 21 0
-193 1 0
-194 -4 0
-194 20 0
-195 194 0
-195 193 0
-196 195 0
-196 192 0
-197 196 189 0
-198 -9 0
-198 -22 0
-199 25 21 0
-200 199 0
-200 198 0
-201 4 23 0
-202 -5 -14 0
-203 202 201 0
-204 203 0
-204 200 0
-205 -19 0
-205 21 0
-206 9 -9 0
-207 206 0
-207 205 0
-208 -9 0
-208 9 0
-209 19 -21 0
-210 209 0
-210 208 0
-211 210 207 0
-212 -9 23 0
-213 -11 -9 0
-214 9 11 0
-215 214 0
-215 213 0
-216 215 0
-216 212 0
-217 11 0
-217 9 0
-218 -9 0
-218 -11 0
-219 218 217 0
-220 9 0
-220 -23 0
-221 220 0
-221 219 0
-222 221 216 0
-223 222 0
-223 211 0
-224 223 204 0
-225 224 0
-225 197 0
-226 9 22 0
-227 -25 0
-227 -21 0
-228 227 226 0
-229 -4 0
-229 -23 0
-230 5 0
-230 14 0
-231 230 0
-231 229 0
-232 231 228 0
-233 208 209 0
-234 205 206 0
-235 234 0
-235 233 0
-236 219 220 0
-237 212 215 0
-238 237 0
-238 236 0
-239 238 235 0
-240 239 0
-240 232 0
-241 17 0
-241 15 0
-242 -22 12 0
-243 242 241 0
-244 185 186 0
-245 182 183 0
-246 245 0
-246 244 0
-247 246 0
-247 243 0
-248 -15 0
-248 -10 0
-249 -4 6 0
-250 249 248 0
-251 -21 -1 0
-252 4 -20 0
-253 252 251 0
-254 253 250 0
-255 254 0
-255 247 0
-256 255 0
-256 240 0
-257 256 225 0
-258 4 0
-258 -4 0
-259 -20 -21 0
-260 259 0
-260 258 0
-261 -5 -17 0
-262 6 -16 0
-263 262 261 0
-264 263 260 0
-265 2 0
-265 -9 0
-266 20 0
-266 -14 0
-267 266 0
-267 265 0
-268 -23 18 0
-269 -7 0
-269 6 0
-270 269 0
-270 268 0
-271 270 0
-271 267 0
-272 271 264 0
-273 11 0
-273 -22 0
-274 22 0
-274 -11 0
-275 274 273 0
-276 2 0
-276 -11 0
-277 276 275 0
-278 -2 11 0
-279 -11 22 0
-280 -22 11 0
-281 280 0
-281 279 0
-282 281 278 0
-283 282 0
-283 277 0
-26 20 0
-27 22 0
-27 -6 0
-28 27 0
-28 26 0
-29 28 283 0
-30 17 0
-30 -22 0
-80 -20 -12 0
-86 80 30 0
-92 -7 0
-92 -9 0
-98 16 10 0
-31 98 92 0
-32 31 86 0
-33 7 9 0
-34 -16 0
-34 -10 0
-35 34 0
-35 33 0
-36 -17 22 0
-37 20 0
-37 12 0
-38 37 0
-38 36 0
-39 38 35 0
-40 39 0
-40 32 0
-41 40 29 0
-42 41 272 0
-43 42 257 0
-44 -4 4 0
-45 20 0
-45 21 0
-46 45 44 0
-47 5 0
-47 17 0
-48 -6 0
-48 16 0
-49 48 0
-49 47 0
-50 49 0
-50 46 0
-51 -2 9 0
-52 -20 14 0
-53 52 51 0
-54 23 0
-54 -18 0
-55 7 -6 0
-56 55 54 0
-57 56 53 0
-58 57 0
-58 50 0
-59 278 0
-59 281 0
-60 275 0
-60 276 0
-61 60 59 0
-62 -20 0
-63 -22 6 0
-64 63 62 0
-65 64 0
-65 61 0
-66 35 0
-66 38 0
-67 86 0
-67 31 0
-68 67 66 0
-69 68 0
-69 65 0
-70 69 0
-70 58 0
-71 240 255 0
-72 197 224 0
-73 72 0
-73 71 0
-74 73 70 0
-75 74 0
-75 43 0
-76 -7 0
-76 16 0
-77 9 -10 0
-78 10 -9 0
-79 78 0
-79 77 0
-81 79 0
-81 76 0
-82 -9 0
-82 10 0
-83 -10 0
-83 9 0
-84 83 82 0
-85 7 -16 0
-87 85 0
-87 84 0
-88 87 81 0
-89 23 0
-89 -14 0
-90 25 0
-90 -15 0
-91 90 89 0
-93 -25 15 0
-94 -23 14 0
-95 94 93 0
-96 95 0
-96 91 0
-97 96 88 0
-99 3 -13 0
-100 3 0
-100 7 0
-101 -7 0
-101 -3 0
-102 101 100 0
-103 102 99 0
-104 -21 -15 0
-105 4 0
-105 23 0
-106 105 104 0
-107 106 0
-107 103 0
-108 107 0
-108 97 0
-109 8 -6 0
-110 15 0
-110 -17 0
-111 110 0
-111 109 0
-112 5 6 0
-113 13 -22 0
-114 113 112 0
-115 114 0
-115 111 0
-116 3 6 0
-117 -3 -8 0
-118 117 116 0
-119 16 0
-119 -2 0
-120 -24 0
-120 -10 0
-121 120 0
-121 119 0
-122 121 0
-122 118 0
-123 -16 2 0
-124 24 10 0
-125 124 123 0
-126 -3 0
-126 -6 0
-127 3 0
-127 8 0
-128 127 0
-128 126 0
-129 128 0
-129 125 0
-130 129 122 0
-131 130 0
-131 115 0
-132 131 0
-132 108 0
-133 17 0
-133 -14 0
-134 -17 15 0
-135 134 133 0
-136 -3 22 0
-137 -22 3 0
-138 137 0
-138 136 0
-139 13 -21 0
-140 139 138 0
-141 140 135 0
-142 5 0
-142 22 0
-143 -5 6 0
-144 -6 5 0
-145 144 0
-145 143 0
-146 145 0
-146 142 0
-147 -24 18 0
-148 17 -1 0
-149 148 0
-149 147 0
-150 149 0
-150 146 0
-151 150 141 0
-152 -9 -12 0
-153 25 17 0
-154 153 0
-154 152 0
-155 25 -23 0
-156 13 -6 0
-157 6 -13 0
-158 157 0
-158 156 0
-159 158 155 0
-160 159 0
-160 154 0
-161 2 0
-161 -8 0
-162 -15 0
-162 25 0
-163 -25 0
-163 15 0
-164 163 162 0
-165 164 161 0
-166 15 -25 0
-167 25 -15 0
-168 167 0
-168 166 0
-169 -2 8 0
-170 169 168 0
-171 170 0
-171 165 0
-172 -7 25 0
-173 -12 19 0
-174 173 172 0
-175 174 0
-175 171 0
-176 175 160 0
-177 176 0
-177 151 0
-178 177 132 0
178 75 0
-44 -258 0
-45 -259 0
-46 -260 0
-260 -46 0
-47 -261 0
-261 -47 0
-262 -48 0
-263 -49 0
-264 -50 0
-265 -51 0
-266 -52 0
-267 -53 0
-54 -268 0
-55 -269 0
-56 -270 0
-270 -56 0
-271 -57 0
-272 -58 0
-58 -272 0
-278 -276 0
-281 -275 0
-275 -281 0
-283 -61 0
-26 -62 0
-62 -26 0
-27 -63 0
-63 -27 0
-64 -28 0
-28 -64 0
-29 -65 0
-65 -29 0
-92 -33 0
-33 -92 0
-34 -98 0
-35 -31 0
-36 -30 0
-80 -37 0
-37 -80 0
-38 -86 0
-86 -38 0
-40 -68 0
-68 -40 0
-69 -41 0
-70 -42 0
-226 -198 0
-198 -226 0
-227 -199 0
-199 -227 0
-200 -228 0
-229 -201 0
-202 -230 0
-230 -202 0
-231 -203 0
-203 -231 0
-204 -232 0
-206 -208 0
-209 -205 0
-235 -211 0
-215 -219 0
-220 -212 0
-238 -222 0
-239 -223 0
-223 -239 0
-224 -240 0
-179 -241 0
-241 -179 0
-180 -242 0
-242 -180 0
-243 -181 0
-183 -185 0
-182 -186 0
-186 -182 0
-246 -188 0
-247 -189 0
-190 -248 0
-191 -249 0
-192 -250 0
-250 -192 0
-193 -251 0
-251 -193 0
-252 -194 0
-253 -195 0
-254 -196 0
-255 -197 0
-73 -257 0
-257 -73 0
-79 -84 0
-85 -76 0
-90 -93 0
-93 -90 0
-89 -94 0
-123 -119 0
-119 -123 0
-124 -120 0
-120 -124 0
-121 -125 0
-126 -116 0
-117 -127 0
-127 -117 0
-128 -118 0
-168 -164 0
-161 -169 0
