projected/problems_b25_r0_d7_m100_s666/b25_d7_r0_s666_059.smt2
(set-logic QF_UF)
(declare-fun A0 () Bool)
(declare-fun A1 () Bool)
(declare-fun A2 () Bool)
(declare-fun A3 () Bool)
(declare-fun A4 () Bool)
(declare-fun A5 () Bool)
(declare-fun A6 () Bool)
(declare-fun A7 () Bool)
(declare-fun A8 () Bool)
(declare-fun A9 () Bool)
(declare-fun A10 () Bool)
(declare-fun A11 () Bool)
(declare-fun A12 () Bool)
(declare-fun A13 () Bool)
(declare-fun A14 () Bool)
(declare-fun A15 () Bool)
(declare-fun A16 () Bool)
(declare-fun A17 () Bool)
(declare-fun A18 () Bool)
(declare-fun A19 () Bool)
(declare-fun A20 () Bool)
(declare-fun A21 () Bool)
(declare-fun A22 () Bool)
(declare-fun A23 () Bool)
(declare-fun A24 () Bool)
(assert (let ((.def_0 (not A3))) (let ((.def_1 (or .def_0 A3))) (let ((.def_2 (and A19 A20))) (let ((.def_3 (or .def_2 .def_1))) (let ((.def_4 (not .def_3))) (let ((.def_5 (and A4 A16))) (let ((.def_6 (not .def_5))) (let ((.def_7 (not A15))) (let ((.def_8 (or A5 .def_7))) (let ((.def_9 (or .def_8 .def_6))) (let ((.def_10 (or .def_9 .def_4))) (let ((.def_11 (not A8))) (let ((.def_12 (and A1 .def_11))) (let ((.def_13 (not A13))) (let ((.def_14 (and A19 .def_13))) (let ((.def_15 (and .def_14 .def_12))) (let ((.def_16 (not A17))) (let ((.def_17 (and A22 .def_16))) (let ((.def_18 (not A5))) (let ((.def_19 (or A6 .def_18))) (let ((.def_20 (or .def_19 .def_17))) (let ((.def_21 (not .def_20))) (let ((.def_22 (and .def_21 .def_15))) (let ((.def_23 (or .def_22 .def_10))) (let ((.def_24 (not .def_23))) (let ((.def_25 (not A1))) (let ((.def_26 (or .def_25 A10))) (let ((.def_27 (= A21 A10))) (let ((.def_28 (not .def_27))) (let ((.def_29 (= .def_28 .def_26))) (let ((.def_30 (or A19 A19))) (let ((.def_31 (not .def_30))) (let ((.def_32 (and A21 .def_18))) (let ((.def_33 (not .def_32))) (let ((.def_34 (or .def_33 .def_31))) (let ((.def_35 (not .def_34))) (let ((.def_36 (or .def_35 .def_29))) (let ((.def_37 (not .def_36))) (let ((.def_38 (not A6))) (let ((.def_39 (and .def_38 .def_11))) (let ((.def_40 (not .def_39))) (let ((.def_41 (not A9))) (let ((.def_42 (and .def_7 .def_41))) (let ((.def_43 (and .def_42 .def_40))) (let ((.def_44 (not A16))) (let ((.def_45 (or .def_44 A21))) (let ((.def_46 (not A11))) (let ((.def_47 (not A19))) (let ((.def_48 (or .def_47 .def_46))) (let ((.def_49 (not .def_48))) (let ((.def_50 (and .def_49 .def_45))) (let ((.def_51 (not .def_50))) (let ((.def_52 (= .def_51 .def_43))) (let ((.def_53 (not .def_52))) (let ((.def_54 (and .def_53 .def_37))) (let ((.def_55 (and .def_54 .def_24))) (let ((.def_56 (or A8 A21))) (let ((.def_57 (not .def_56))) (let ((.def_58 (not A20))) (let ((.def_59 (not A24))) (let ((.def_60 (and .def_59 .def_58))) (let ((.def_61 (not .def_60))) (let ((.def_62 (and .def_61 .def_57))) (let ((.def_63 (not A22))) (let ((.def_64 (and .def_0 .def_63))) (let ((.def_65 (not A4))) (let ((.def_66 (or .def_65 .def_13))) (let ((.def_67 (not .def_66))) (let ((.def_68 (and .def_67 .def_64))) (let ((.def_69 (not .def_68))) (let ((.def_70 (and .def_69 .def_62))) (let ((.def_71 (or A8 .def_11))) (let ((.def_72 (or A18 .def_58))) (let ((.def_73 (= .def_72 .def_71))) (let ((.def_74 (= .def_11 A10))) (let ((.def_75 (and A8 .def_63))) (let ((.def_76 (= .def_75 .def_74))) (let ((.def_77 (or .def_76 .def_73))) (let ((.def_78 (not .def_77))) (let ((.def_79 (or .def_78 .def_70))) (let ((.def_80 (not A14))) (let ((.def_81 (or .def_44 .def_80))) (let ((.def_82 (not .def_81))) (let ((.def_83 (and A21 .def_46))) (let ((.def_84 (not .def_83))) (let ((.def_85 (or .def_84 .def_82))) (let ((.def_86 (or A1 A11))) (let ((.def_87 (not A21))) (let ((.def_88 (or A19 .def_87))) (let ((.def_89 (not .def_88))) (let ((.def_90 (= .def_89 .def_86))) (let ((.def_91 (and .def_90 .def_85))) (let ((.def_92 (or A14 A9))) (let ((.def_93 (and A3 .def_18))) (let ((.def_94 (and .def_93 .def_92))) (let ((.def_95 (not .def_94))) (let ((.def_96 (and A20 A0))) (let ((.def_97 (not .def_96))) (let ((.def_98 (or A3 .def_47))) (let ((.def_99 (or .def_98 .def_97))) (let ((.def_100 (or .def_99 .def_95))) (let ((.def_101 (and .def_100 .def_91))) (let ((.def_102 (= .def_101 .def_79))) (let ((.def_103 (not .def_102))) (let ((.def_104 (= .def_103 .def_55))) (let ((.def_105 (= .def_41 .def_11))) (let ((.def_106 (or A6 .def_7))) (let ((.def_107 (= .def_106 .def_105))) (let ((.def_108 (and A24 .def_80))) (let ((.def_109 (not .def_108))) (let ((.def_110 (and A22 .def_13))) (let ((.def_111 (= .def_110 .def_109))) (let ((.def_112 (not .def_111))) (let ((.def_113 (and .def_112 .def_107))) (let ((.def_114 (not A12))) (let ((.def_115 (or A2 .def_114))) (let ((.def_116 (= .def_38 A2))) (let ((.def_117 (not .def_116))) (let ((.def_118 (or .def_117 .def_115))) (let ((.def_119 (and A20 A14))) (let ((.def_120 (and A3 A22))) (let ((.def_121 (not .def_120))) (let ((.def_122 (and .def_121 .def_119))) (let ((.def_123 (not .def_122))) (let ((.def_124 (and .def_123 .def_118))) (let ((.def_125 (not .def_124))) (let ((.def_126 (or .def_125 .def_113))) (let ((.def_127 (or A7 .def_18))) (let ((.def_128 (or .def_80 A16))) (let ((.def_129 (not .def_128))) (let ((.def_130 (and .def_129 .def_127))) (let ((.def_131 (not .def_130))) (let ((.def_132 (or A4 A5))) (let ((.def_133 (not .def_132))) (let ((.def_134 (and .def_114 A21))) (let ((.def_135 (and .def_134 .def_133))) (let ((.def_136 (or .def_135 .def_131))) (let ((.def_137 (not .def_136))) (let ((.def_138 (or .def_7 A1))) (let ((.def_139 (not .def_138))) (let ((.def_140 (or A23 A9))) (let ((.def_141 (not .def_140))) (let ((.def_142 (and .def_141 .def_139))) (let ((.def_143 (not A2))) (let ((.def_144 (and .def_143 .def_18))) (let ((.def_145 (not A7))) (let ((.def_146 (or .def_143 .def_145))) (let ((.def_147 (not .def_146))) (let ((.def_148 (and .def_147 .def_144))) (let ((.def_149 (= .def_148 .def_142))) (let ((.def_150 (not .def_149))) (let ((.def_151 (and .def_150 .def_137))) (let ((.def_152 (not .def_151))) (let ((.def_153 (or .def_152 .def_126))) (let ((.def_154 (and A16 .def_13))) (let ((.def_155 (or .def_44 A14))) (let ((.def_156 (or .def_155 .def_154))) (let ((.def_157 (not .def_156))) (let ((.def_158 (= A21 A2))) (let ((.def_159 (and .def_114 A20))) (let ((.def_160 (not .def_159))) (let ((.def_161 (or .def_160 .def_158))) (let ((.def_162 (not .def_161))) (let ((.def_163 (and .def_162 .def_157))) (let ((.def_164 (not .def_163))) (let ((.def_165 (or .def_65 .def_87))) (let ((.def_166 (not .def_165))) (let ((.def_167 (= A5 A4))) (let ((.def_168 (and .def_167 .def_166))) (let ((.def_169 (not .def_168))) (let ((.def_170 (not A23))) (let ((.def_171 (or .def_170 A17))) (let ((.def_172 (not A0))) (let ((.def_173 (or A16 .def_172))) (let ((.def_174 (and .def_173 .def_171))) (let ((.def_175 (not .def_174))) (let ((.def_176 (or .def_175 .def_169))) (let ((.def_177 (not .def_176))) (let ((.def_178 (or .def_177 .def_164))) (let ((.def_179 (and A8 A11))) (let ((.def_180 (not .def_179))) (let ((.def_181 (or A24 A16))) (let ((.def_182 (and .def_181 .def_180))) (let ((.def_183 (or A24 .def_63))) (let ((.def_184 (= .def_18 .def_114))) (let ((.def_185 (or .def_184 .def_183))) (let ((.def_186 (and .def_185 .def_182))) (let ((.def_187 (not .def_186))) (let ((.def_188 (= .def_59 .def_80))) (let ((.def_189 (and A1 .def_145))) (let ((.def_190 (= .def_189 .def_188))) (let ((.def_191 (and A6 .def_59))) (let ((.def_192 (not .def_191))) (let ((.def_193 (or .def_46 A18))) (let ((.def_194 (or .def_193 .def_192))) (let ((.def_195 (and .def_194 .def_190))) (let ((.def_196 (not .def_195))) (let ((.def_197 (and .def_196 .def_187))) (let ((.def_198 (not .def_197))) (let ((.def_199 (and .def_198 .def_178))) (let ((.def_200 (not .def_199))) (let ((.def_201 (and .def_200 .def_153))) (let ((.def_202 (not .def_201))) (let ((.def_203 (or .def_202 .def_104))) .def_203)))))))))))))))))))))))))))))))))))))))))))))))))))))))))))))))))))))))))))))))))))))))))))))))))))))))))))))))))))))))))))))))))))))))))))))))))))))))))))))))))))))))))))))))))))))))))))))))))))))))))))))
(check-sat)
